proyfinal/src/viki/013/andrea/andrea-localstore/experimentInOfficeAgust.take6/worker_9/dffccab2-76db-44a3-903c-8452d157e1af.als.cnf.out
Reading from standard input... Use '--help' for help.
============================[ Problem Statistics ]=============================
|                                                                             |
|  Number of variables:         87638                                         |
|  Number of clauses:          161767                                         |
|  Parse time:                   0.04 s                                       |
|                                                                             |
============================[ Search Statistics ]==============================
| Conflicts |          ORIGINAL         |          LEARNT          | Progress |
|           |    Vars  Clauses Literals |    Limit  Clauses Lit/Cl |          |
===============================================================================
|       100 |   63366   109012   271671 |    39971      100     24 | 27.696 % |
|       250 |   63366   109012   271671 |    43968      250     25 | 27.696 % |
|       475 |   63366   109012   271671 |    48364      475     47 | 27.696 % |
|       812 |   63366   109012   271671 |    53201      812     62 | 27.696 % |
|      1318 |   63366   109012   271671 |    58521     1318     70 | 27.696 % |
|      2077 |   63366   109012   271671 |    64373     2077     68 | 27.696 % |
|      3216 |   63366   109012   271671 |    70811     3216     72 | 27.696 % |
|      4924 |   63366   109012   271671 |    77892     4924     82 | 27.696 % |
|      7486 |   63366   109012   271671 |    85681     7486     86 | 27.696 % |
|     11330 |   63335   108897   271367 |    94249    11228     86 | 27.731 % |
|     17096 |   57862    90685   226650 |   103674    15944     88 | 33.976 % |
===============================================================================
restarts              : 68
conflicts             : 19839          (7843 /sec)
decisions             : 60753          (0.00 % random) (24016 /sec)
propagations          : 23199225       (9170912 /sec)
conflict literals     : 1691309        (50.42 % deleted)
Memory used           : 38.81 MB
CPU time              : 2.52965 s

UNSATISFIABLE
